c colouring generated by benchmark framework
p edge 500 112437
v 1 97
v 2 96
v 3 31
v 4 87
v 5 156
v 6 35
v 7 157
v 8 25
v 9 172
v 10 4
v 11 88
v 12 102
v 13 145
v 14 93
v 15 57
v 16 10
v 17 78
v 18 144
v 19 42
v 20 0
v 21 93
v 22 137
v 23 193
v 24 58
v 25 26
v 26 1
v 27 110
v 28 108
v 29 3
v 30 18
v 31 8
v 32 124
v 33 119
v 34 68
v 35 0
v 36 86
v 37 118
v 38 72
v 39 152
v 40 148
v 41 40
v 42 46
v 43 26
v 44 162
v 45 160
v 46 54
v 47 37
v 48 48
v 49 33
v 50 75
v 51 125
v 52 22
v 53 167
v 54 46
v 55 149
v 56 60
v 57 138
v 58 142
v 59 105
v 60 92
v 61 39
v 62 164
v 63 68
v 64 22
v 65 41
v 66 92
v 67 7
v 68 23
v 69 12
v 70 134
v 71 112
v 72 5
v 73 110
v 74 9
v 75 103
v 76 38
v 77 168
v 78 99
v 79 13
v 80 82
v 81 150
v 82 108
v 83 136
v 84 85
v 85 126
v 86 69
v 87 4
v 88 56
v 89 40
v 90 156
v 91 90
v 92 38
v 93 120
v 94 142
v 95 15
v 96 28
v 97 25
v 98 174
v 99 104
v 100 170
v 101 130
v 102 132
v 103 37
v 104 101
v 105 88
v 106 29
v 107 81
v 108 55
v 109 37
v 110 63
v 111 162
v 112 117
v 113 97
v 114 11
v 115 30
v 116 130
v 117 103
v 118 128
v 119 53
v 120 68
v 121 122
v 122 193
v 123 51
v 124 64
v 125 128
v 126 28
v 127 190
v 128 25
v 129 60
v 130 70
v 131 131
v 132 116
v 133 104
v 134 53
v 135 22
v 136 117
v 137 6
v 138 88
v 139 55
v 140 32
v 141 166
v 142 127
v 143 44
v 144 135
v 145 71
v 146 140
v 147 52
v 148 74
v 149 138
v 150 63
v 151 151
v 152 11
v 153 50
v 154 111
v 155 28
v 156 175
v 157 70
v 158 77
v 159 131
v 160 83
v 161 77
v 162 113
v 163 24
v 164 8
v 165 194
v 166 178
v 167 95
v 168 159
v 169 31
v 170 18
v 171 64
v 172 24
v 173 23
v 174 11
v 175 32
v 176 23
v 177 34
v 178 0
v 179 133
v 180 12
v 181 181
v 182 45
v 183 82
v 184 34
v 185 143
v 186 8
v 187 146
v 188 67
v 189 114
v 190 63
v 191 114
v 192 35
v 193 149
v 194 165
v 195 56
v 196 33
v 197 78
v 198 83
v 199 11
v 200 6
v 201 28
v 202 76
v 203 23
v 204 145
v 205 151
v 206 160
v 207 13
v 208 39
v 209 29
v 210 189
v 211 57
v 212 26
v 213 157
v 214 95
v 215 42
v 216 73
v 217 133
v 218 65
v 219 123
v 220 43
v 221 134
v 222 59
v 223 110
v 224 185
v 225 44
v 226 27
v 227 20
v 228 48
v 229 29
v 230 74
v 231 50
v 232 48
v 233 47
v 234 169
v 235 5
v 236 171
v 237 29
v 238 72
v 239 182
v 240 74
v 241 15
v 242 30
v 243 125
v 244 30
v 245 115
v 246 94
v 247 84
v 248 118
v 249 144
v 250 116
v 251 1
v 252 118
v 253 107
v 254 106
v 255 163
v 256 169
v 257 67
v 258 163
v 259 45
v 260 119
v 261 17
v 262 147
v 263 150
v 264 140
v 265 105
v 266 1
v 267 122
v 268 154
v 269 36
v 270 32
v 271 97
v 272 10
v 273 138
v 274 101
v 275 90
v 276 27
v 277 4
v 278 131
v 279 65
v 280 122
v 281 40
v 282 98
v 283 2
v 284 187
v 285 13
v 286 62
v 287 143
v 288 21
v 289 168
v 290 7
v 291 89
v 292 67
v 293 62
v 294 76
v 295 165
v 296 120
v 297 70
v 298 107
v 299 42
v 300 108
v 301 161
v 302 96
v 303 176
v 304 153
v 305 102
v 306 128
v 307 155
v 308 153
v 309 20
v 310 112
v 311 10
v 312 19
v 313 6
v 314 35
v 315 24
v 316 124
v 317 10
v 318 37
v 319 43
v 320 159
v 321 161
v 322 139
v 323 179
v 324 150
v 325 176
v 326 125
v 327 2
v 328 117
v 329 86
v 330 66
v 331 100
v 332 79
v 333 0
v 334 192
v 335 116
v 336 111
v 337 113
v 338 21
v 339 142
v 340 103
v 341 91
v 342 31
v 343 177
v 344 123
v 345 52
v 346 87
v 347 3
v 348 41
v 349 12
v 350 66
v 351 38
v 352 146
v 353 75
v 354 49
v 355 18
v 356 91
v 357 61
v 358 147
v 359 19
v 360 56
v 361 52
v 362 61
v 363 128
v 364 123
v 365 85
v 366 99
v 367 192
v 368 186
v 369 93
v 370 79
v 371 94
v 372 180
v 373 111
v 374 69
v 375 152
v 376 98
v 377 143
v 378 20
v 379 129
v 380 137
v 381 127
v 382 2
v 383 188
v 384 158
v 385 9
v 386 16
v 387 87
v 388 26
v 389 35
v 390 126
v 391 89
v 392 9
v 393 61
v 394 16
v 395 141
v 396 60
v 397 43
v 398 17
v 399 144
v 400 41
v 401 59
v 402 53
v 403 49
v 404 139
v 405 49
v 406 80
v 407 95
v 408 56
v 409 152
v 410 62
v 411 91
v 412 127
v 413 75
v 414 66
v 415 141
v 416 80
v 417 89
v 418 58
v 419 121
v 420 140
v 421 17
v 422 47
v 423 167
v 424 78
v 425 129
v 426 106
v 427 81
v 428 96
v 429 33
v 430 81
v 431 16
v 432 109
v 433 15
v 434 36
v 435 136
v 436 135
v 437 47
v 438 34
v 439 107
v 440 101
v 441 76
v 442 166
v 443 3
v 444 98
v 445 139
v 446 130
v 447 147
v 448 84
v 449 14
v 450 19
v 451 44
v 452 158
v 453 79
v 454 6
v 455 132
v 456 148
v 457 185
v 458 129
v 459 73
v 460 5
v 461 64
v 462 120
v 463 155
v 464 154
v 465 84
v 466 90
v 467 106
v 468 126
v 469 154
v 470 55
v 471 7
v 472 121
v 473 71
v 474 36
v 475 51
v 476 80
v 477 170
v 478 151
v 479 51
v 480 77
v 481 112
v 482 58
v 483 54
v 484 73
v 485 85
v 486 94
v 487 183
v 488 92
v 489 115
v 490 83
v 491 46
v 492 59
v 493 21
v 494 45
v 495 86
v 496 109
v 497 14
v 498 54
v 499 100
v 500 173
